solution status: optimal solution found
objective value:                                  -80
x#80#6                                              1 	(obj:-1)
x#79#46                                             1 	(obj:-1)
x#78#34                                             1 	(obj:-1)
x#77#63                                             1 	(obj:-1)
x#76#68                             0.999999999999999 	(obj:-1)
x#75#78                                             1 	(obj:-1)
x#74#15                                             1 	(obj:-1)
x#73#74                                             1 	(obj:-1)
x#72#79                                             1 	(obj:-1)
x#71#71                                             1 	(obj:-1)
x#70#80                                             1 	(obj:-1)
x#69#27                                             1 	(obj:-1)
x#68#19                                             1 	(obj:-1)
x#67#17                                             1 	(obj:-1)
x#66#31                             0.999999999999999 	(obj:-1)
x#65#42                                             1 	(obj:-1)
x#64#13                                             1 	(obj:-1)
x#63#72                                             1 	(obj:-1)
x#62#40                                             1 	(obj:-1)
x#61#9                                              1 	(obj:-1)
x#60#49                                             1 	(obj:-1)
x#59#20                                             1 	(obj:-1)
x#58#56                             0.999999999999999 	(obj:-1)
x#57#25                                             1 	(obj:-1)
x#56#32                                             1 	(obj:-1)
x#55#12                                             1 	(obj:-1)
x#54#44                             0.999999999999999 	(obj:-1)
x#53#23                                             1 	(obj:-1)
x#52#14                                             1 	(obj:-1)
x#51#53                                             1 	(obj:-1)
x#50#22                                             1 	(obj:-1)
x#49#4                                              1 	(obj:-1)
x#48#60                                             1 	(obj:-1)
x#47#43                                             1 	(obj:-1)
x#46#57                                             1 	(obj:-1)
x#45#11                                             1 	(obj:-1)
x#44#62                                             1 	(obj:-1)
x#43#2                              0.999999999999997 	(obj:-1)
x#42#58                                             1 	(obj:-1)
x#41#16                                             1 	(obj:-1)
x#40#61                                             1 	(obj:-1)
x#39#21                                             1 	(obj:-1)
x#38#55                                             1 	(obj:-1)
x#37#73                                             1 	(obj:-1)
x#36#29                                             1 	(obj:-1)
x#35#64                                             1 	(obj:-1)
x#34#5                                              1 	(obj:-1)
x#33#59                                             1 	(obj:-1)
x#32#37                                             1 	(obj:-1)
x#31#18                                             1 	(obj:-1)
x#30#3                                              1 	(obj:-1)
x#29#8                                              1 	(obj:-1)
x#28#66                                             1 	(obj:-1)
x#27#41                                             1 	(obj:-1)
x#26#65                                             1 	(obj:-1)
x#25#70                                             1 	(obj:-1)
x#24#39                                             1 	(obj:-1)
x#23#51                             0.999999999999999 	(obj:-1)
x#22#26                                             1 	(obj:-1)
x#21#52                                             1 	(obj:-1)
x#20#1                              0.999999999999999 	(obj:-1)
x#19#7                                              1 	(obj:-1)
x#18#24                                             1 	(obj:-1)
x#17#47                                             1 	(obj:-1)
x#16#38                                             1 	(obj:-1)
x#15#28                             0.999999999999999 	(obj:-1)
x#14#48                                             1 	(obj:-1)
x#13#10                                             1 	(obj:-1)
x#12#35                                             1 	(obj:-1)
x#11#67                                             1 	(obj:-1)
x#10#75                                             1 	(obj:-1)
x#9#50                                              1 	(obj:-1)
x#8#33                                              1 	(obj:-1)
x#7#76                                              1 	(obj:-1)
x#6#30                                              1 	(obj:-1)
x#5#45                                              1 	(obj:-1)
x#4#36                                              1 	(obj:-1)
x#3#77                                              1 	(obj:-1)
x#2#69                                              1 	(obj:-1)
x#1#54                                              1 	(obj:-1)
